20
0 1 0.79 0.13
0 2 0.62 0.19
0 3 0.48 0.08
0 4 0.38 0.33
0 5 0.71 0.16
0 6 0.46 0.28
0 7 0.64 0.38
0 8 0.5 0.33
0 9 0.74 0.27
0 10 0.44 0.2
0 11 0.62 0.28
0 12 0.42 0.24
0 13 0.66 0.32
0 14 0.78 0.2
0 15 0.7 0.34
0 16 0.82 0.38
0 17 0.74 0.32
0 18 0.34 0.12
0 19 0.72 0.23
1 2 0.65 0.28
1 3 0.44 0.21
1 4 0.8 0.34
1 5 0.7 0.29
1 6 0.78 0.28
1 7 0.78 0.25
1 8 0.64 0.41
1 9 0.55 0.14
1 10 0.46 0.1
1 11 0.57 0.16
1 12 0.65 0.14
1 13 0.52 0.22
1 14 0.69 0.18
1 15 0.58 0.22
1 16 0.64 0.37
1 17 0.64 0.31
1 18 0.81 0.25
1 19 0.32 0.13
2 3 0.48 0.27
2 4 0.45 0.28
2 5 0.46 0.11
2 6 0.71 0.3
2 7 0.58 0.37
2 8 0.76 0.28
2 9 0.46 0.27
2 10 0.66 0.18
2 11 0.28 0.22
2 12 0.76 0.22
2 13 0.71 0.29
2 14 0.64 0.16
2 15 0.74 0.29
2 16 0.7 0.35
2 17 0.58 0.34
2 18 0.37 0.07
2 19 0.71 0.15
3 4 0.54 0.32
3 5 0.65 0.24
3 6 0.34 0.2
3 7 0.59 0.43
3 8 0.64 0.41
3 9 0.58 0.21
3 10 0.53 0.2
3 11 0.38 0.28
3 12 0.56 0.24
3 13 0.82 0.32
3 14 0.82 0.12
3 15 0.7 0.28
3 16 0.8 0.46
3 17 0.82 0.24
3 18 0.48 0.2
3 19 0.76 0.23
4 5 0.85 0.26
4 6 0.76 0.42
4 7 0.78 0.46
4 8 0.64 0.36
4 9 0.68 0.42
4 10 0.42 0.24
4 11 0.5 0.32
4 12 0.38 0.2
4 13 0.77 0.36
4 14 0.63 0.32
4 15 0.76 0.35
4 16 0.87 0.38
4 17 0.59 0.38
4 18 0.64 0.22
4 19 0.81 0.27
5 6 0.7 0.19
5 7 0.91 0.42
5 8 0.49 0.21
5 9 0.61 0.16
5 10 0.43 0.24
5 11 0.4 0.32
5 12 0.62 0.28
5 13 0.64 0.24
5 14 0.68 0.27
5 15 0.57 0.26
5 16 0.82 0.32
5 17 0.82 0.23
5 18 0.58 0.04
5 19 0.57 0.26
6 7 0.42 0.39
6 8 0.58 0.28
6 9 0.34 0.2
6 10 0.36 0.18
6 11 0.43 0.26
6 12 0.55 0.22
6 13 0.71 0.13
6 14 0.62 0.26
6 15 0.74 0.18
6 16 0.51 0.32
6 17 0.91 0.04
6 18 0.71 0.23
6 19 0.64 0.21
7 8 0.68 0.38
7 9 0.76 0.39
7 10 0.48 0.23
7 11 0.68 0.15
7 12 0.4 0.26
7 13 0.81 0.35
7 14 0.79 0.31
7 15 0.68 0.42
7 16 0.8 0.5
7 17 0.72 0.43
7 18 0.58 0.4
7 19 0.46 0.26
8 9 0.6 0.32
8 10 0.66 0.31
8 11 0.54 0.28
8 12 0.6 0.35
8 13 0.45 0.41
8 14 0.66 0.39
8 15 0.72 0.46
8 16 0.66 0.53
8 17 0.49 0.32
8 18 0.53 0.25
8 19 0.52 0.28
9 10 0.6 0.24
9 11 0.51 0.3
9 12 0.41 0.28
9 13 0.64 0.33
9 14 0.58 0.32
9 15 0.69 0.36
9 16 0.48 0.32
9 17 0.82 0.24
9 18 0.48 0.2
9 19 0.78 0.27
10 11 0.67 0.08
10 12 0.19 0.04
10 13 0.35 0.12
10 14 0.34 0.08
10 15 0.56 0.32
10 16 0.49 0.4
10 17 0.58 0.21
10 18 0.35 0.2
10 19 0.56 0.03
11 12 0.48 0.12
11 13 0.63 0.2
11 14 0.5 0.16
11 15 0.46 0.33
11 16 0.42 0.35
11 17 0.59 0.29
11 18 0.44 0.28
11 19 0.64 0.11
12 13 0.54 0.16
12 14 0.53 0.12
12 15 0.71 0.36
12 16 0.68 0.36
12 17 0.69 0.25
12 18 0.54 0.24
12 19 0.57 0.07
13 14 0.52 0.2
13 15 0.59 0.29
13 16 0.84 0.37
13 17 0.62 0.09
13 18 0.34 0.22
13 19 0.64 0.15
14 15 0.49 0.4
14 16 0.83 0.48
14 17 0.65 0.29
14 18 0.69 0.23
14 19 0.76 0.11
15 16 0.77 0.45
15 17 0.48 0.22
15 18 0.79 0.22
15 19 0.37 0.3
16 17 0.78 0.28
16 18 0.79 0.28
16 19 0.74 0.43
17 18 0.76 0.27
17 19 0.62 0.24
18 19 0.7 0.22
